Route #1: 38 33 49 16 17 13 10 18
Route #2: 4 35 15 40 1 6 26
Route #3: 39 27 11 30 50 45 31 3
Route #4: 23 47 46 51 37 44 43 20 24
Route #5: 34 7 19 41 36
Route #6: 21 28 52 9 2 32
Route #7: 5 29 48 8 42 22 25 12 53 14
cost 1810.7627126500608
